presolving:
(round 1, fast)       336 del vars, 336 del conss, 0 add conss, 12 chg bounds, 324 chg sides, 0 chg coeffs, 0 upgd conss, 0 impls, 3900 clqs
   (0.0s) running MILP presolver
   (0.0s) MILP presolver found nothing
(round 2, exhaustive) 336 del vars, 336 del conss, 0 add conss, 12 chg bounds, 324 chg sides, 0 chg coeffs, 3912 upgd conss, 0 impls, 3900 clqs
   (0.1s) probing: 51/3612 (1.4%) - 0 fixings, 0 aggregations, 0 implications, 0 bound changes
   (0.1s) probing aborted: 50/50 successive totally useless probings
   (0.1s) symmetry computation started: requiring (bin +, int -, cont +), (fixed: bin -, int +, cont -)
   (0.1s) no symmetry present
presolving (3 rounds: 3 fast, 2 medium, 2 exhaustive):
 336 deleted vars, 336 deleted constraints, 0 added constraints, 12 tightened bounds, 0 added holes, 324 changed sides, 12 changed coefficients
 0 implications, 3900 cliques
presolved problem has 3612 variables (3612 bin, 0 int, 0 impl, 0 cont) and 3912 constraints
     12 constraints of type <knapsack>
   3900 constraints of type <setppc>
Presolving Time: 0.13

 time | node  | left  |LP iter|LP it/n|mem/heur|mdpt |vars |cons |rows |cuts |sepa|confs|strbr|  dualbound   | primalbound  |  gap   | compl. 
p 0.2s|     1 |     0 |     0 |     - |  clique|   0 |3612 |3912 |3912 |   0 |  0 |   0 |   0 | 0.000000e+00 |-5.027863e+04 |    Inf | unknown
  1.0s|     1 |     0 |  3198 |     - |    46M |   0 |3612 |3926 |3912 |   0 |  0 |  14 |   0 |-4.264731e+04 |-5.027863e+04 |  17.89%| unknown
  1.4s|     1 |     0 |  3250 |     - |    48M |   0 |3612 |3926 |3915 |   3 |  1 |  14 |   0 |-4.266908e+04 |-5.027863e+04 |  17.83%| unknown
  2.9s|     1 |     0 |  3304 |     - |    51M |   0 |3612 |3926 |3919 |   7 |  2 |  14 |   0 |-4.268845e+04 |-5.027863e+04 |  17.78%| unknown
  5.1s|     1 |     0 |  3352 |     - |    55M |   0 |3612 |3926 |3922 |  10 |  3 |  14 |   0 |-4.270134e+04 |-5.027863e+04 |  17.74%| unknown
  5.6s|     1 |     0 |  3384 |     - |    55M |   0 |3612 |3926 |3924 |  12 |  4 |  14 |   0 |-4.270824e+04 |-5.027863e+04 |  17.73%| unknown
  7.1s|     1 |     0 |  3432 |     - |    58M |   0 |3612 |3926 |3927 |  15 |  5 |  14 |   0 |-4.271487e+04 |-5.027863e+04 |  17.71%| unknown
  9.3s|     1 |     0 |  3483 |     - |    63M |   0 |3612 |3926 |3931 |  19 |  6 |  14 |   0 |-4.273158e+04 |-5.027863e+04 |  17.66%| unknown
  9.6s|     1 |     0 |  3512 |     - |    63M |   0 |3612 |3926 |3934 |  22 |  7 |  14 |   0 |-4.273745e+04 |-5.027863e+04 |  17.65%| unknown
  9.9s|     1 |     0 |  3547 |     - |    64M |   0 |3612 |3926 |3937 |  25 |  8 |  14 |   0 |-4.274585e+04 |-5.027863e+04 |  17.62%| unknown
 11.1s|     1 |     0 |  3565 |     - |    64M |   0 |3612 |3926 |3940 |  28 |  9 |  14 |   0 |-4.275379e+04 |-5.027863e+04 |  17.60%| unknown
 12.6s|     1 |     0 |  3600 |     - |    67M |   0 |3612 |3926 |3944 |  32 | 10 |  14 |   0 |-4.277266e+04 |-5.027863e+04 |  17.55%| unknown
r12.6s|     1 |     0 |  3600 |     - |rounding|   0 |3612 |3926 |3944 |  32 | 10 |  14 |   0 |-4.277266e+04 |-4.741620e+04 |  10.86%| unknown
 12.7s|     1 |     0 |  3669 |     - |    67M |   0 |3612 |3926 |3946 |  34 | 11 |  14 |   0 |-4.278067e+04 |-4.741620e+04 |  10.84%| unknown
 12.8s|     1 |     0 |  3678 |     - |    67M |   0 |3612 |3926 |3949 |  37 | 12 |  14 |   0 |-4.278351e+04 |-4.741620e+04 |  10.83%| unknown
 time | node  | left  |LP iter|LP it/n|mem/heur|mdpt |vars |cons |rows |cuts |sepa|confs|strbr|  dualbound   | primalbound  |  gap   | compl. 
 12.9s|     1 |     0 |  3692 |     - |    68M |   0 |3612 |3926 |3951 |  39 | 13 |  14 |   0 |-4.278580e+04 |-4.741620e+04 |  10.82%| unknown
 13.0s|     1 |     0 |  3732 |     - |    68M |   0 |3612 |3926 |3953 |  41 | 14 |  14 |   0 |-4.278864e+04 |-4.741620e+04 |  10.81%| unknown
 13.2s|     1 |     0 |  3792 |     - |    69M |   0 |3612 |3926 |3956 |  44 | 15 |  14 |   0 |-4.280523e+04 |-4.741620e+04 |  10.77%| unknown
 13.3s|     1 |     0 |  3811 |     - |    69M |   0 |3612 |3926 |3957 |  46 | 16 |  14 |   0 |-4.280808e+04 |-4.741620e+04 |  10.76%| unknown
 13.4s|     1 |     0 |  3821 |     - |    70M |   0 |3612 |3926 |3960 |  49 | 17 |  14 |   0 |-4.281080e+04 |-4.741620e+04 |  10.76%| unknown
 13.6s|     1 |     0 |  3835 |     - |    70M |   0 |3612 |3925 |3961 |  50 | 18 |  14 |   0 |-4.281322e+04 |-4.741620e+04 |  10.75%| unknown
 13.7s|     1 |     0 |  3849 |     - |    71M |   0 |3612 |3925 |3962 |  51 | 19 |  14 |   0 |-4.281377e+04 |-4.741620e+04 |  10.75%| unknown
 13.8s|     1 |     0 |  3902 |     - |    71M |   0 |3612 |3925 |3964 |  53 | 20 |  14 |   0 |-4.282418e+04 |-4.741620e+04 |  10.72%| unknown
d14.2s|     1 |     0 |  4975 |     - |farkasdi|   0 |3612 |3925 |3964 |   0 | 22 |  14 |   0 |-4.282418e+04 |-4.429400e+04 |   3.43%| unknown
 14.7s|     1 |     0 |  6776 |     - |    72M |   0 |3612 |3924 |3964 |  53 | 22 |  14 |   0 |-4.282418e+04 |-4.429400e+04 |   3.43%| unknown
 17.2s|     1 |     2 |  6776 |     - |    72M |   0 |3612 |3923 |3964 |  53 | 24 |  14 |  19 |-4.304117e+04 |-4.429400e+04 |   2.91%| unknown
*33.2s|    11 |     6 | 10847 | 721.1 |strongbr|   5 |3612 |3924 |3956 |  53 |  2 |  17 | 290 |-4.325406e+04 |-4.429208e+04 |   2.40%|  18.13%
*35.0s|    13 |     6 | 11459 | 651.9 |strongbr|   6 |3612 |3924 |3956 |  53 |  1 |  17 | 335 |-4.325406e+04 |-4.427080e+04 |   2.35%|  19.43%
*35.7s|    14 |     5 | 11792 | 627.4 |strongbr|   6 |3612 |3929 |3956 |  53 |  2 |  23 | 369 |-4.325406e+04 |-4.405066e+04 |   1.84%|  20.00%

SCIP Status        : problem is solved [optimal solution found]
Solving Time (sec) : 41.46
Solving Nodes      : 55
Primal Bound       : -4.40506556195934e+04 (8 solutions)
Dual Bound         : -4.40506556195934e+04
Gap                : 0.00 %
Solve Status: optimal
Solve Time: 41.46 seconds
Objective Value: -44050.66
